WARNING: for repeatability, setting FPU to use double precision
============================[ Problem Statistics ]=============================
|                                                                             |
|  Number of variables:            50                                         |
|  Number of clauses:             218                                         |
|  Parse time:                   0.00 s                                       |
|                                                                             |
============================[ Search Statistics ]==============================
| Conflicts |          ORIGINAL         |          LEARNT          | Progress |
|           |    Vars  Clauses Literals |    Limit  Clauses Lit/Cl |          |
===============================================================================
===============================================================================
restarts              : 1
conflicts             : 61             (41667 /sec)
decisions             : 75             (0.00 % random) (51230 /sec)
propagations          : 821            (560792 /sec)
conflict literals     : 222            (11.20 % deleted)
Memory used           : 20.00 MB
CPU time              : 0.001464 s

UNSATISFIABLE
